31407.25
166 96 104 31 93 161 125 199 155 0 49 168 174 129 33 80 179 119 137 37 148 185 65 51 7 120 189 45 145 124 108 133 68 106 183 157 151 15 62 53 76 42 90 153 14 171 136 83 164 23 26 87 178 12 180 78 146 40 72 38 187 122 121 70 3 154 43 92 59 52 123 176 2 82 39 58 149 63 84 17 5 115 4 117 144 135 18 195 61 36 50 34 118 191 1 99 29 143 47 140 91 116 177 54 86 162 147 55 150 94 130 25 112 101 8 9 141 19 24 113 163 181 20 46 27 11 114 132 105 103 182 81 188 142 95 85 159 173 64 186 13 67 32 165 44 98 77 30 56 71 134 160 79 156 193 75 126 170 60 111 73 100 194 197 6 131 66 74 158 35 128 107 198 175 196 190 28 127 57 102 110 192 21 172 184 41 22 109 167 10 88 69 152 48 169 97 138 89 16 139